NAME          
ROWS
 N  OBJ
 L  c1
 L  c2
COLUMNS
    MARKER    'MARKER'                 'INTORG'
    x[1]      c1        228
    x[1]      c2        581
    x[1]      OBJ       -866
    x[2]      c1        801
    x[2]      c2        525
    x[2]      OBJ       -548
    x[3]      c1        62
    x[3]      c2        627
    x[3]      OBJ       -906
    x[4]      c1        767
    x[4]      c2        492
    x[4]      OBJ       -191
    x[5]      c1        58
    x[5]      c2        74
    x[5]      OBJ       -718
    x[6]      c1        739
    x[6]      c2        777
    x[6]      OBJ       -476
    x[7]      c1        54
    x[7]      c2        913
    x[7]      OBJ       -640
    x[8]      c1        637
    x[8]      c2        878
    x[8]      OBJ       -810
    x[9]      c1        230
    x[9]      c2        871
    x[9]      OBJ       -672
    x[10]     c1        299
    x[10]     c2        879
    x[10]     OBJ       -556
    x[11]     c1        781
    x[11]     c2        458
    x[11]     OBJ       -864
    x[12]     c1        634
    x[12]     c2        769
    x[12]     OBJ       -432
    x[13]     c1        347
    x[13]     c2        159
    x[13]     OBJ       -262
    x[14]     c1        914
    x[14]     c2        752
    x[14]     OBJ       -823
    x[15]     c1        657
    x[15]     c2        392
    x[15]     OBJ       -290
    x[16]     c1        494
    x[16]     c2        179
    x[16]     OBJ       -370
    x[17]     c1        995
    x[17]     c2        598
    x[17]     OBJ       -389
    x[18]     c1        711
    x[18]     c2        746
    x[18]     OBJ       -173
    x[19]     c1        670
    x[19]     c2        783
    x[19]     OBJ       -898
    x[20]     c1        94
    x[20]     c2        541
    x[20]     OBJ       -826
    x[21]     c1        64
    x[21]     c2        110
    x[21]     OBJ       -244
    x[22]     c1        749
    x[22]     c2        501
    x[22]     OBJ       -41
    x[23]     c1        892
    x[23]     c2        892
    x[23]     OBJ       -213
    x[24]     c1        758
    x[24]     c2        514
    x[24]     OBJ       -1000
    x[25]     c1        744
    x[25]     c2        158
    x[25]     OBJ       -917
    x[26]     c1        399
    x[26]     c2        81
    x[26]     OBJ       -676
    x[27]     c1        317
    x[27]     c2        105
    x[27]     OBJ       -93
    x[28]     c1        355
    x[28]     c2        62
    x[28]     OBJ       -165
    x[29]     c1        847
    x[29]     c2        702
    x[29]     OBJ       -943
    x[30]     c1        769
    x[30]     c2        157
    x[30]     OBJ       -89
    x[31]     c1        217
    x[31]     c2        986
    x[31]     OBJ       -387
    x[32]     c1        439
    x[32]     c2        12
    x[32]     OBJ       -201
    x[33]     c1        368
    x[33]     c2        967
    x[33]     OBJ       -829
    x[34]     c1        515
    x[34]     c2        295
    x[34]     OBJ       -938
    x[35]     c1        345
    x[35]     c2        961
    x[35]     OBJ       -246
    x[36]     c1        804
    x[36]     c2        236
    x[36]     OBJ       -618
    x[37]     c1        168
    x[37]     c2        51
    x[37]     OBJ       -24
    x[38]     c1        695
    x[38]     c2        714
    x[38]     OBJ       -193
    x[39]     c1        510
    x[39]     c2        344
    x[39]     OBJ       -989
    x[40]     c1        684
    x[40]     c2        376
    x[40]     OBJ       -255
    x[41]     c1        622
    x[41]     c2        6
    x[41]     OBJ       -349
    x[42]     c1        747
    x[42]     c2        53
    x[42]     OBJ       -833
    x[43]     c1        597
    x[43]     c2        74
    x[43]     OBJ       -597
    x[44]     c1        467
    x[44]     c2        797
    x[44]     OBJ       -647
    x[45]     c1        384
    x[45]     c2        269
    x[45]     OBJ       -328
RHS
    rhs       c1        11814
    rhs       c2        10708
RANGES
BOUNDS
 BV bounds    x[1]
 BV bounds    x[2]
 BV bounds    x[3]
 BV bounds    x[4]
 BV bounds    x[5]
 BV bounds    x[6]
 BV bounds    x[7]
 BV bounds    x[8]
 BV bounds    x[9]
 BV bounds    x[10]
 BV bounds    x[11]
 BV bounds    x[12]
 BV bounds    x[13]
 BV bounds    x[14]
 BV bounds    x[15]
 BV bounds    x[16]
 BV bounds    x[17]
 BV bounds    x[18]
 BV bounds    x[19]
 BV bounds    x[20]
 BV bounds    x[21]
 BV bounds    x[22]
 BV bounds    x[23]
 BV bounds    x[24]
 BV bounds    x[25]
 BV bounds    x[26]
 BV bounds    x[27]
 BV bounds    x[28]
 BV bounds    x[29]
 BV bounds    x[30]
 BV bounds    x[31]
 BV bounds    x[32]
 BV bounds    x[33]
 BV bounds    x[34]
 BV bounds    x[35]
 BV bounds    x[36]
 BV bounds    x[37]
 BV bounds    x[38]
 BV bounds    x[39]
 BV bounds    x[40]
 BV bounds    x[41]
 BV bounds    x[42]
 BV bounds    x[43]
 BV bounds    x[44]
 BV bounds    x[45]
ENDATA
